AES/1_4_4/ssaes_r1-20_c4_rw1_e4_f0_k1-20_aes_1base_box_aes_mc_bidirectional/ExperimentMinisat_r13_k19cnf_2011-11-18-105047/Result
WARNING: for repeatability, setting FPU to use double precision
============================[ Problem Statistics ]=============================
|                                                                             |
|  Number of variables:           984                                         |
|  Number of clauses:            4315                                         |
|  Parse time:                   0.00 s                                       |
|  Eliminated clauses:           0.01 Mb                                      |
|  Simplification time:          0.00 s                                       |
|                                                                             |
=============================[ Search Statistics ]==============================
| Conflicts  |          ORIGINAL         |          LEARNT          | Progress |
|            |    Vars  Clauses Literals |    Limit  Clauses Lit/Cl |          |
================================================================================
|        100 |     676     3387    11104 |     1241      100     11 |  8.537 % |
|        250 |     676     3387    11104 |     1366      250     19 |  8.537 % |
|        475 |     676     3387    11104 |     1502      475     19 |  8.537 % |
|        812 |     676     3387    11104 |     1652      812     19 |  8.537 % |
|       1318 |     676     3387    11104 |     1818     1318     20 |  8.537 % |
|       2077 |     676     3387    11104 |     2000     1108     16 |  8.537 % |
|       3216 |     676     3387    11104 |     2200     1191     15 |  8.537 % |
|       4924 |     676     3387    11104 |     2420     1739     15 |  8.537 % |
|       7486 |     676     3387    11104 |     2662     1764     15 |  8.537 % |
|      11330 |     676     3387    11104 |     2928     1447     10 |  8.537 % |
|      17096 |     676     3387    11104 |     3221     2662     14 |  8.537 % |
|      25745 |     676     3387    11104 |     3543     2965     14 |  8.537 % |
|      38719 |     676     3387    11104 |     3897     3122     13 |  8.537 % |
|      58180 |     676     3387    11104 |     4287     2501     12 |  8.537 % |
|      87372 |     676     3387    11104 |     4716     3040     13 |  8.537 % |
|     131161 |     676     3387    11104 |     5187     3358     12 |  8.537 % |
===============================================================================
restarts              : 382
conflicts             : 141559         (15162 /sec)
decisions             : 156730         (0.00 % random) (16787 /sec)
propagations          : 47486614       (5086082 /sec)
conflict literals     : 2498922        (54.84 % deleted)
Memory used           : 8.00 MB
CPU time              : 9.33658 s

SATISFIABLE
